Minimize
    r
Subject to
    dv11: x111 + x121 = 3
    dv12: x112 + x122 = 4
    dv13: x113 + x123 = 5
    dv21: x211 + x221 = 5
    dv22: x212 + x222 = 6
    dv23: x213 + x223 = 7
    dv31: x311 + x321 = 7
    dv32: x312 + x322 = 8
    dv33: x313 + x323 = 9
    capc11: x111 + x112 + x113 - c11 = 0
    capc12: x121 + x122 + x123 - c12 = 0
    capc21: x211 + x212 + x213 - c21 = 0
    capc22: x221 + x222 + x223 - c22 = 0
    capc31: x311 + x312 + x313 - c31 = 0
    capc32: x321 + x322 + x323 - c32 = 0
    capd11: x111 + x211 + x311 - d11 = 0
    capd12: x112 + x212 + x312 - d12 = 0
    capd13: x113 + x213 + x313 - d13 = 0
    capd21: x121 + x221 + x321 - d21 = 0
    capd22: x122 + x222 + x322 - d22 = 0
    capd23: x123 + x223 + x323 - d23 = 0
    pl11: u111 + u121 = 2
    pl12: u112 + u122 = 2
    pl13: u113 + u123 = 2
    pl21: u211 + u221 = 2
    pl22: u212 + u222 = 2
    pl23: u213 + u223 = 2
    pl31: u311 + u321 = 2
    pl32: u312 + u322 = 2
    pl33: u313 + u323 = 2
    df111: 2 x111 - 3 u111 = 0
    df112: 2 x112 - 4 u112 = 0
    df113: 2 x113 - 5 u113 = 0
    df121: 2 x121 - 3 u121 = 0
    df122: 2 x122 - 4 u122 = 0
    df123: 2 x123 - 5 u123 = 0
    df211: 2 x211 - 5 u211 = 0
    df212: 2 x212 - 6 u212 = 0
    df213: 2 x213 - 7 u213 = 0
    df221: 2 x221 - 5 u221 = 0
    df222: 2 x222 - 6 u222 = 0
    df223: 2 x223 - 7 u223 = 0
    df311: 2 x311 - 7 u311 = 0
    df312: 2 x312 - 8 u312 = 0
    df313: 2 x313 - 9 u313 = 0
    df321: 2 x321 - 7 u321 = 0
    df322: 2 x322 - 8 u322 = 0
    df323: 2 x323 - 9 u323 = 0
    tload1: x111 + x112 + x113 + x211 + x212 + x213 + x311 + x312 + x313 - r <= 0
    tload2: x121 + x122 + x123 + x221 + x222 + x223 + x321 + x322 + x323 - r <= 0
Bounds
    0 <= x111
    0 <= x112
    0 <= x113
    0 <= x121
    0 <= x122
    0 <= x123
    0 <= x211
    0 <= x212
    0 <= x213
    0 <= x221
    0 <= x222
    0 <= x223
    0 <= x311
    0 <= x312
    0 <= x313
    0 <= x321
    0 <= x322
    0 <= x323
    0 <= r
Binaries
    u111
    u112
    u113
    u121
    u122
    u123
    u211
    u212
    u213
    u221
    u222
    u223
    u311
    u312
    u313
    u321
    u322
    u323
End
